WARNING: for repeatability, setting FPU to use double precision
============================[ Problem Statistics ]=============================
|                                                                             |
|  Number of variables:         77577                                         |
|  Number of clauses:          276874                                         |
|  Parse time:                   0.07 s                                       |
|                                                                             |
c ============================[ Search Statistics ]==============================
c | Conflicts |          ORIGINAL         |          LEARNT          | Progress |
c |           |    Vars  Clauses Literals |    Limit  Clauses Lit/Cl |          |
c ===============================================================================
c Switched to VSIDS.
c Switched to LRB.
c Switched to VSIDS.
c Switched to LRB.
c Switched to VSIDS.
c Switched to LRB.
c Switched to VSIDS.
c Switched to LRB.
c Switched to VSIDS.
c Switched to LRB.
c Switched to VSIDS.
c Switched to LRB.
c Switched to VSIDS.
c Switched to LRB.
c Switched to VSIDS.
c Switched to LRB.
c Switched to VSIDS.
c Switched to LRB.
c Switched to VSIDS.
c Switched to LRB.
c Switched to VSIDS.
c Switched to LRB.
c Switched to VSIDS.
c Switched to LRB.
c Switched to VSIDS.
c Switched to LRB.
c Switched to VSIDS.
c Switched to LRB.
c Switched to VSIDS.
c Switched to LRB.
c Switched to VSIDS.
c Switched to LRB.
c Switched to VSIDS.
c Switched to LRB.
c Switched to VSIDS.
c ===============================================================================
restarts                  : 66866
conflicts                 : 14058543       (3977 /sec)
decisions                 : 112412671      (0.00 % random) (31802 /sec)
propagations              : 8629726790     (2441348 /sec)
conflict literals         : 1276807930     (7.93 % deleted)

conflicts w/ DIP found    : 11870131       (84.43 % of conflicts)
conflicts w/ dangerous DIP: 0              (0.00 % of conflicts)
conflicts w/ DIP-learning : 148049         (1.05 % of conflicts)
decisions on ext vars     : 2199253        (1.96 % of decisions)
total ext vars            : 14594       
tried delete ext vars     : 1           
deleted ext vars          : 1           
max ext vars              : 14593       

Memory used               : 800.00 MB
CPU time                  : 3534.82 s
DIP computation time      : 116.646 s (3.30 % of total time)
ER_sel time               : 21.3177 s
ER_add time               : 0.078554 s
ER_delC time              : 0 s
ER_delV time              : 0.001559 s
ER_sub time               : 25.611 s
ER_stat time              : 0 s

INDETERMINATE
